without_loop_formulas/kyoto-city-bus_20100905_0027_gr_bz2_lp_lp_paths_tw3.lp.cnf
p cnf 44 91
c 7 select(1,2)
c 8 nots(1,2)
c 9 select(1,5)
c 10 nots(1,5)
c 11 reach(5)
c 12 reach(2)
c 13 select(2,1)
c 14 nots(2,1)
c 15 select(5,1)
c 16 nots(5,1)
c 17 select(5,3)
c 18 nots(5,3)
c 19 select(2,4)
c 20 nots(2,4)
c 21 reach(4)
c 22 reach(3)
c 23 select(4,2)
c 24 nots(4,2)
c 25 select(3,5)
c 26 nots(3,5)
c 33 edge(1,2)
c 34 edge(1,5)
c 35 edge(2,4)
c 36 edge(3,5)
c 37 reach(1)
c 38 goal(5)
7 8 0
-7 -8 0
9 10 0
-9 -10 0
39 -9 0
-39 9 0
40 -7 0
-40 7 0
13 -12 14 0
-13 12 0
-13 -14 0
15 -11 16 0
-15 11 0
-15 -16 0
17 -11 18 0
-17 11 0
-17 -18 0
19 -12 20 0
-19 12 0
-19 -20 0
21 -19 0
-21 19 0
22 -17 0
-22 17 0
23 -21 24 0
-23 21 0
-23 -24 0
25 -22 26 0
-25 22 0
-25 -26 0
41 -25 0
-41 25 0
42 -23 0
-42 23 0
14 -12 13 0
-14 12 0
-14 -13 0
16 -11 15 0
-16 11 0
-16 -15 0
24 -21 23 0
-24 21 0
-24 -23 0
18 -11 17 0
-18 11 0
-18 -17 0
8 7 0
-8 -7 0
10 9 0
-10 -9 0
20 -12 19 0
-20 12 0
-20 -19 0
26 -22 25 0
-26 22 0
-26 -25 0
43 -15 0
-43 15 0
44 -17 0
-44 17 0
11 0
-29 0
-9 -7 0
-17 -15 -11 0
-19 -13 -12 0
33 0
34 0
35 0
36 0
37 0
38 0
-1 0
-2 0
-3 0
-4 0
-5 0
-6 0
-11 39 41 0
11 -39 0
11 -41 0
-12 40 42 0
12 -40 0
12 -42 0
-27 0
-28 0
-29 43 44 0
29 -43 0
29 -44 0
-30 0
-31 0
-32 0
